
Gurobi 9.1.2 (win64) logging started Tue Dec  7 10:22:28 2021

Gurobi Optimizer version 9.1.2 build v9.1.2rc0 (win64)
Thread count: 8 physical cores, 8 logical processors, using up to 8 threads
Optimize a model with 1 rows, 64 columns and 63 nonzeros
Model fingerprint: 0x86d4dc91
Variable types: 1 continuous, 63 integer (63 binary)
Coefficient statistics:
  Matrix range     [1e+00, 1e+01]
  Objective range  [1e+00, 1e+00]
  Bounds range     [5e+00, 5e+00]
  RHS range        [1e+01, 1e+01]
Presolve time: 0.00s
Presolved: 1 rows, 64 columns, 63 nonzeros
Variable types: 1 continuous, 63 integer (63 binary)

Root simplex log...

Iteration    Objective       Primal Inf.    Dual Inf.      Time
       0   -4.5726626e+00   2.013824e-01   0.000000e+00     15s
       3   -4.5726626e+00   0.000000e+00   0.000000e+00     15s

Root relaxation: objective -4.572663e+00, 3 iterations, 0.00 seconds

    Nodes    |    Current Node    |     Objective Bounds      |     Work
 Expl Unexpl |  Obj  Depth IntInf | Incumbent    BestBd   Gap | It/Node Time

*    0     0               0      -4.5726626   -4.57266  0.00%     -   14s

Cutting planes:
  Lazy constraints: 1

Explored 0 nodes (3 simplex iterations) in 14.78 seconds
Thread count was 8 (of 8 available processors)

Solution count 1: -4.57266 
No other solutions better than -4.57266

Optimal solution found (tolerance 1.00e-04)
Best objective -4.572662631154e+00, best bound -4.572662631154e+00, gap 0.0000%

User-callback calls 64, time in user-callback 18.59 sec
